NAME          DCAP_2_4_3_500_SS158
ROWS
 N  OBJ
 L  CON1
 L  CON2
 L  CON3
 L  CON4
 L  CON5
 L  CON6
 L  CON7
 L  CON8
 L  CON9
 L  CON10
 L  CON11
 L  CON12
 E  CON13
 E  CON14
 E  CON15
 E  CON16
 E  CON17
 E  CON18
 E  CON19
 E  CON20
 E  CON21
 E  CON22
 E  CON23
 E  CON24
COLUMNS
    x[1,1]    OBJ       6.180167      CON1      1.000000    
    x[1,1]    CON7      -1.000000     CON8      -1.000000   
    x[1,1]    CON9      -1.000000   
    x[1,2]    OBJ       6.563535      CON2      1.000000    
    x[1,2]    CON8      -1.000000     CON9      -1.000000   
    x[1,3]    OBJ       7.443064      CON3      1.000000    
    x[1,3]    CON9      -1.000000   
    x[2,1]    OBJ       6.732585      CON4      1.000000    
    x[2,1]    CON10     -1.000000     CON11     -1.000000   
    x[2,1]    CON12     -1.000000   
    x[2,2]    OBJ       5.039546      CON5      1.000000    
    x[2,2]    CON11     -1.000000     CON12     -1.000000   
    x[2,3]    OBJ       6.054841      CON6      1.000000    
    x[2,3]    CON12     -1.000000   
    MARKER    'MARKER'                'INTORG'
    u[1,1]    OBJ       48.076654     CON1      -1.000000   
    u[1,2]    OBJ       20.066487     CON2      -1.000000   
    u[1,3]    OBJ       32.230043     CON3      -1.000000   
    u[2,1]    OBJ       49.996186     CON4      -1.000000   
    u[2,2]    OBJ       49.466655     CON5      -1.000000   
    u[2,3]    OBJ       27.484319     CON6      -1.000000   
    y[1,1,1]  OBJ       5.451056      CON7      0.680951    
    y[1,1,1]  CON13     1.000000    
    y[1,1,2]  OBJ       6.744327      CON8      1.369261    
    y[1,1,2]  CON14     1.000000    
    y[1,1,3]  OBJ       5.316133      CON9      0.758564    
    y[1,1,3]  CON15     1.000000    
    y[1,2,1]  OBJ       7.425430      CON7      1.054413    
    y[1,2,1]  CON16     1.000000    
    y[1,2,2]  OBJ       9.459403      CON8      0.551179    
    y[1,2,2]  CON17     1.000000    
    y[1,2,3]  OBJ       6.906665      CON9      0.536933    
    y[1,2,3]  CON18     1.000000    
    y[1,3,1]  OBJ       6.410281      CON7      1.049895    
    y[1,3,1]  CON19     1.000000    
    y[1,3,2]  OBJ       6.649051      CON8      0.708039    
    y[1,3,2]  CON20     1.000000    
    y[1,3,3]  OBJ       8.417112      CON9      1.386488    
    y[1,3,3]  CON21     1.000000    
    y[1,4,1]  OBJ       7.189549      CON7      1.166716    
    y[1,4,1]  CON22     1.000000    
    y[1,4,2]  OBJ       9.990190      CON8      1.234782    
    y[1,4,2]  CON23     1.000000    
    y[1,4,3]  OBJ       9.444026      CON9      0.845140    
    y[1,4,3]  CON24     1.000000    
    y[2,1,1]  OBJ       6.743125      CON10     0.680951    
    y[2,1,1]  CON13     1.000000    
    y[2,1,2]  OBJ       9.299100      CON11     1.369261    
    y[2,1,2]  CON14     1.000000    
    y[2,1,3]  OBJ       5.477522      CON12     0.758564    
    y[2,1,3]  CON15     1.000000    
    y[2,2,1]  OBJ       6.331581      CON10     1.054413    
    y[2,2,1]  CON16     1.000000    
    y[2,2,2]  OBJ       7.044613      CON11     0.551179    
    y[2,2,2]  CON17     1.000000    
    y[2,2,3]  OBJ       7.945902      CON12     0.536933    
    y[2,2,3]  CON18     1.000000    
    y[2,3,1]  OBJ       5.764706      CON10     1.049895    
    y[2,3,1]  CON19     1.000000    
    y[2,3,2]  OBJ       9.913891      CON11     0.708039    
    y[2,3,2]  CON20     1.000000    
    y[2,3,3]  OBJ       9.063394      CON12     1.386488    
    y[2,3,3]  CON21     1.000000    
    y[2,4,1]  OBJ       8.440840      CON10     1.166716    
    y[2,4,1]  CON22     1.000000    
    y[2,4,2]  OBJ       7.283886      CON11     1.234782    
    y[2,4,2]  CON23     1.000000    
    y[2,4,3]  OBJ       9.775552      CON12     0.845140    
    y[2,4,3]  CON24     1.000000    
    z[1,1]    OBJ       501.252541    CON13     1.000000    
    z[1,2]    OBJ       862.319501    CON14     1.000000    
    z[1,3]    OBJ       844.775389    CON15     1.000000    
    z[2,1]    OBJ       554.783272    CON16     1.000000    
    z[2,2]    OBJ       648.701055    CON17     1.000000    
    z[2,3]    OBJ       527.255939    CON18     1.000000    
    z[3,1]    OBJ       571.949386    CON19     1.000000    
    z[3,2]    OBJ       692.079119    CON20     1.000000    
    z[3,3]    OBJ       929.328938    CON21     1.000000    
    z[4,1]    OBJ       740.700339    CON22     1.000000    
    z[4,2]    OBJ       604.471195    CON23     1.000000    
    z[4,3]    OBJ       988.293628    CON24     1.000000    
    MARKER    'MARKER'                 'INTEND'
RHS
    RHS       CON1      -0.000000     CON2      -0.000000   
    RHS       CON3      -0.000000     CON4      -0.000000   
    RHS       CON5      -0.000000     CON6      -0.000000   
    RHS       CON7      -0.000000     CON8      -0.000000   
    RHS       CON9      -0.000000     CON10     -0.000000   
    RHS       CON11     -0.000000     CON12     -0.000000   
    RHS       CON13     1.000000      CON14     1.000000    
    RHS       CON15     1.000000      CON16     1.000000    
    RHS       CON17     1.000000      CON18     1.000000    
    RHS       CON19     1.000000      CON20     1.000000    
    RHS       CON21     1.000000      CON22     1.000000    
    RHS       CON23     1.000000      CON24     1.000000    
BOUNDS
 BV BOUND     u[1,1]  
 BV BOUND     u[1,2]  
 BV BOUND     u[1,3]  
 BV BOUND     u[2,1]  
 BV BOUND     u[2,2]  
 BV BOUND     u[2,3]  
 BV BOUND     y[1,1,1]
 BV BOUND     y[1,1,2]
 BV BOUND     y[1,1,3]
 BV BOUND     y[1,2,1]
 BV BOUND     y[1,2,2]
 BV BOUND     y[1,2,3]
 BV BOUND     y[1,3,1]
 BV BOUND     y[1,3,2]
 BV BOUND     y[1,3,3]
 BV BOUND     y[1,4,1]
 BV BOUND     y[1,4,2]
 BV BOUND     y[1,4,3]
 BV BOUND     y[2,1,1]
 BV BOUND     y[2,1,2]
 BV BOUND     y[2,1,3]
 BV BOUND     y[2,2,1]
 BV BOUND     y[2,2,2]
 BV BOUND     y[2,2,3]
 BV BOUND     y[2,3,1]
 BV BOUND     y[2,3,2]
 BV BOUND     y[2,3,3]
 BV BOUND     y[2,4,1]
 BV BOUND     y[2,4,2]
 BV BOUND     y[2,4,3]
 BV BOUND     z[1,1]  
 BV BOUND     z[1,2]  
 BV BOUND     z[1,3]  
 BV BOUND     z[2,1]  
 BV BOUND     z[2,2]  
 BV BOUND     z[2,3]  
 BV BOUND     z[3,1]  
 BV BOUND     z[3,2]  
 BV BOUND     z[3,3]  
 BV BOUND     z[4,1]  
 BV BOUND     z[4,2]  
 BV BOUND     z[4,3]  
ENDATA
